evaluation/lemmas/list/length.log
17:19:49 [WARN] Collecting statistics
17:19:49 [WARN]  ex is: zero
17:19:49 [WARN]  ex is: (succ zero)
17:19:49 [WARN]  ex is: (succ (succ zero))
17:19:49 [WARN]  ex is: nil
17:19:49 [WARN]  ex is: (cons autovar_nat_0 nil)
17:19:49 [WARN]  ex is: (cons autovar_nat_1 (cons autovar_nat_0 nil))
17:19:49 [WARN] Proof mode: false
17:19:49 [WARN]  ex is: zero
17:19:49 [WARN]  ex is: (succ zero)
17:19:49 [WARN]  ex is: (succ (succ zero))
17:19:49 [WARN]  ex is: nil
17:19:49 [WARN]  ex is: (cons autovar_nat_0 nil)
17:19:49 [WARN]  ex is: (cons autovar_nat_1 (cons autovar_nat_0 nil))
17:19:49 [WARN] Proof mode: false
17:19:49 [WARN] proved: (nlength ?ts_ph_list_0 zero) => (length ?ts_ph_list_0)
17:19:49 [WARN] proved: (length ?ts_ph_list_0) => (nlength ?ts_ph_list_0 zero)
17:19:49 [WARN] proved: (succ (qlength ?ts_ph_list_0 ?ts_ph_nat_1)) => (qlength ?ts_ph_list_0 (succ ?ts_ph_nat_1))
17:19:49 [WARN] proved: (qlength ?ts_ph_list_0 (succ ?ts_ph_nat_1)) => (succ (qlength ?ts_ph_list_0 ?ts_ph_nat_1))
17:19:49 [WARN] proved: (qlength ?ts_ph_list_0 (length ?ts_ph_list_1)) => (nlength ?ts_ph_list_0 (length ?ts_ph_list_1))
17:19:49 [WARN] proved: (nlength ?ts_ph_list_0 (length ?ts_ph_list_1)) => (qlength ?ts_ph_list_0 (length ?ts_ph_list_1))
17:19:49 [WARN] proved: (succ (nlength ?ts_ph_list_0 ?ts_ph_nat_0)) => (qlength ?ts_ph_list_0 (succ ?ts_ph_nat_0))
17:19:49 [WARN] proved: (qlength ?ts_ph_list_0 (succ ?ts_ph_nat_0)) => (succ (nlength ?ts_ph_list_0 ?ts_ph_nat_0))
17:19:49 [WARN] proved: (nlength ?ts_ph_list_0 (succ ?ts_ph_nat_0)) => (qlength ?ts_ph_list_0 (succ ?ts_ph_nat_0))
17:19:49 [WARN] proved: (qlength ?ts_ph_list_0 (succ ?ts_ph_nat_0)) => (nlength ?ts_ph_list_0 (succ ?ts_ph_nat_0))
17:19:49 [WARN] proved: (nlength ?ts_ph_list_0 (qlength ?ts_ph_list_1 ?ts_ph_nat_1)) => (qlength ?ts_ph_list_0 (qlength ?ts_ph_list_1 ?ts_ph_nat_1))
17:19:49 [WARN] proved: (qlength ?ts_ph_list_0 (qlength ?ts_ph_list_1 ?ts_ph_nat_1)) => (nlength ?ts_ph_list_0 (qlength ?ts_ph_list_1 ?ts_ph_nat_1))
17:19:49 [WARN] proved: (nlength ?ts_ph_list_0 (nlength ?ts_ph_list_1 ?ts_ph_nat_1)) => (qlength ?ts_ph_list_0 (nlength ?ts_ph_list_1 ?ts_ph_nat_1))
17:19:49 [WARN] proved: (qlength ?ts_ph_list_0 (nlength ?ts_ph_list_1 ?ts_ph_nat_1)) => (nlength ?ts_ph_list_0 (nlength ?ts_ph_list_1 ?ts_ph_nat_1))
17:19:49 [WARN] proved: (nlength ?ts_ph_list_1 (qlength ?ts_ph_list_0 ?ts_ph_nat_0)) => (nlength ?ts_ph_list_1 (nlength ?ts_ph_list_0 ?ts_ph_nat_0))
17:19:49 [WARN] proved: (nlength ?ts_ph_list_1 (nlength ?ts_ph_list_0 ?ts_ph_nat_0)) => (nlength ?ts_ph_list_1 (qlength ?ts_ph_list_0 ?ts_ph_nat_0))
17:19:49 [WARN] proved: (cons (length ?ts_ph_list_0) ?ts_ph_list_1) => (cons (qlength ?ts_ph_list_0 zero) ?ts_ph_list_1)
17:19:49 [WARN] proved: (cons (qlength ?ts_ph_list_0 zero) ?ts_ph_list_1) => (cons (length ?ts_ph_list_0) ?ts_ph_list_1)
17:19:49 [WARN] proved: (cons (nlength ?ts_ph_list_0 ?ts_ph_nat_1) nil) => (cons (qlength ?ts_ph_list_0 ?ts_ph_nat_1) nil)
17:19:49 [WARN] proved: (cons (qlength ?ts_ph_list_0 ?ts_ph_nat_1) nil) => (cons (nlength ?ts_ph_list_0 ?ts_ph_nat_1) nil)
17:19:49 [WARN] proved: (cons (nlength ?ts_ph_list_0 ?ts_ph_nat_0) ?ts_ph_list_0) => (cons (qlength ?ts_ph_list_0 ?ts_ph_nat_0) ?ts_ph_list_0)
17:19:49 [WARN] proved: (cons (qlength ?ts_ph_list_0 ?ts_ph_nat_0) ?ts_ph_list_0) => (cons (nlength ?ts_ph_list_0 ?ts_ph_nat_0) ?ts_ph_list_0)
17:19:49 [WARN] proved: (cons (nlength ?ts_ph_list_0 ?ts_ph_nat_1) (cons ?ts_ph_nat_1 ?ts_ph_list_1)) => (cons (qlength ?ts_ph_list_0 ?ts_ph_nat_1) (cons ?ts_ph_nat_1 ?ts_ph_list_1))
17:19:49 [WARN] proved: (cons (qlength ?ts_ph_list_0 ?ts_ph_nat_1) (cons ?ts_ph_nat_1 ?ts_ph_list_1)) => (cons (nlength ?ts_ph_list_0 ?ts_ph_nat_1) (cons ?ts_ph_nat_1 ?ts_ph_list_1))
17:19:49 [WARN] proved: (cons (nlength ?ts_ph_list_0 ?ts_ph_nat_1) (cons zero ?ts_ph_list_1)) => (cons (qlength ?ts_ph_list_0 ?ts_ph_nat_1) (cons zero ?ts_ph_list_1))
17:19:49 [WARN] proved: (cons (qlength ?ts_ph_list_0 ?ts_ph_nat_1) (cons zero ?ts_ph_list_1)) => (cons (nlength ?ts_ph_list_0 ?ts_ph_nat_1) (cons zero ?ts_ph_list_1))
17:19:49 [WARN] proved: (cons (qlength ?ts_ph_list_0 ?ts_ph_nat_1) (cons ?ts_ph_nat_0 ?ts_ph_list_0)) => (cons (nlength ?ts_ph_list_0 ?ts_ph_nat_1) (cons ?ts_ph_nat_0 ?ts_ph_list_0))
17:19:49 [WARN] proved: (cons (nlength ?ts_ph_list_0 ?ts_ph_nat_1) (cons ?ts_ph_nat_0 ?ts_ph_list_0)) => (cons (qlength ?ts_ph_list_0 ?ts_ph_nat_1) (cons ?ts_ph_nat_0 ?ts_ph_list_0))
17:19:49 [WARN] proved: (cons (qlength ?ts_ph_list_0 ?ts_ph_nat_1) (cons ?ts_ph_nat_0 nil)) => (cons (nlength ?ts_ph_list_0 ?ts_ph_nat_1) (cons ?ts_ph_nat_0 nil))
17:19:49 [WARN] proved: (cons (nlength ?ts_ph_list_0 ?ts_ph_nat_1) (cons ?ts_ph_nat_0 nil)) => (cons (qlength ?ts_ph_list_0 ?ts_ph_nat_1) (cons ?ts_ph_nat_0 nil))
17:19:49 [WARN] proved: (qlength ?ts_ph_list_0 (length ?ts_ph_list_1)) => (qlength ?ts_ph_list_1 (length ?ts_ph_list_0))
17:19:49 [WARN] proved: (qlength ?ts_ph_list_1 (length ?ts_ph_list_0)) => (qlength ?ts_ph_list_0 (length ?ts_ph_list_1))
17:19:49 [WARN] proved: (qlength ?ts_ph_list_0 (qlength ?ts_ph_list_1 ?ts_ph_nat_1)) => (qlength ?ts_ph_list_1 (qlength ?ts_ph_list_0 ?ts_ph_nat_1))
17:19:49 [WARN] proved: (qlength ?ts_ph_list_1 (qlength ?ts_ph_list_0 ?ts_ph_nat_1)) => (qlength ?ts_ph_list_0 (qlength ?ts_ph_list_1 ?ts_ph_nat_1))
